(set-logic QF_S)
(declare-fun var_0xINPUT_122151 () String)
(assert (and (= (len var_0xINPUT_122151) 0) (= (len var_0xINPUT_122151) 0) (not (= var_0xINPUT_122151 "pVEECEXk2p"))))
(check-sat var_0xINPUT_122151)